Problem:    
Rows:       260
Columns:    89 (72 integer, 72 binary)
Non-zeros:  812
Status:     INTEGER OPTIMAL
Objective:  value = 5.523511 (MINimum)

   No.   Row name        Activity     Lower bound   Upper bound
------ ------------    ------------- ------------- -------------
     1 r.5                   1005.52             0               
     2 r.6                  -997.758      -998.457               
     3 r.7                   5.52351             0               
     4 r.8                   2.24239      -991.793               
     5 r.9                   1005.52             0               
     6 r.10                 -995.778      -998.509               
     7 r.11                  5.52351             0               
     8 r.12                 -991.758       -991.81               
     9 r.13                  5.52351             0               
    10 r.14                 -999.838       -999.89               
    11 r.15                  1005.52             0               
    12 r.16                 -997.758      -998.332               
    13 r.17                  1005.52             0               
    14 r.18                 -997.269       -999.84               
    15 r.19                  5.52351             0               
    16 r.20                  4.22249      -997.926               
    17 r.21                  1005.52             0               
    18 r.22                   -999.3      -999.353               
    19 r.23                  5.52351             0               
    20 r.24                  2.24239      -996.111               
    21 r.25                  1005.52             0               
    22 r.26                 -999.948      -999.948               
    23 r.27                  5.52351             0               
    24 r.28                 0.052222      -998.763               
    25 r.29                  1005.52             0               
    26 r.30                 -994.476      -998.699               
    27 r.31                  5.52351             0               
    28 r.32                  5.52351      -997.005               
    29 r.33                  5.52351             0               
    30 r.34                  5.52351      -997.841               
    31 r.35                  1005.52             0               
    32 r.36                 -994.476      -996.719               
    33 r.37                        1             1             = 
    34 r.38                        1             1             = 
    35 r.39                        1             1             = 
    36 r.40                        1             1             = 
    37 r.41                        1             1             = 
    38 r.42                        1             1             = 
    39 r.43                        1             1             = 
    40 r.44                        1             1             = 
    41 r.45                        2             2               
    42 r.46                       -2         -1001               
    43 r.47                  -998.02      -998.509               
    44 r.48                     1000             2               
    45 r.49                    -1000         -1001               
    46 r.50                     1006       -991.81               
    47 r.51                     1001             2               
    48 r.52                    -1001         -1001               
    49 r.53                   997.92       -999.89               
    50 r.54                     1001             2               
    51 r.55                    -1001         -1001               
    52 r.56                     2000      -998.332               
    53 r.57                        2             2               
    54 r.58                       -2         -1001               
    55 r.59                 -999.511       -999.84               
    56 r.60                     1000             2               
    57 r.61                    -1000         -1001               
    58 r.62                  2001.98      -997.926               
    59 r.63                        2             2               
    60 r.64                       -2         -1001               
    61 r.65                 -1.54281      -999.353               
    62 r.66                     1000             2               
    63 r.67                    -1000         -1001               
    64 r.68                     2000      -996.111               
    65 r.69                  -997.81      -998.457               
    66 r.70                  2.19017      -991.793               
    67 r.71                  -997.81      -998.457               
    68 r.72                  2.19017      -991.793               
    69 r.73                 -996.719      -998.699               
    70 r.74                  3.28112      -997.005               
    71 r.75                 -996.719      -998.699               
    72 r.76                  3.28112      -997.005               
    73 r.77                  3.28112      -997.841               
    74 r.78                 -996.719      -996.719               
    75 r.79                  3.28112      -997.841               
    76 r.80                 -996.719      -996.719               
    77 r.81                        2             2               
    78 r.82                       -2         -1001               
    79 r.83                   998.02       1.54281               
    80 r.84                     1000             2               
    81 r.85                    -1000         -1001               
    82 r.86                     2994       8.20737               
    83 r.87                     1001             2               
    84 r.88                    -1001         -1001               
    85 r.89                   995.94       -999.89               
    86 r.90                     1001             2               
    87 r.91                    -1001         -1001               
    88 r.92                     2994      -998.332               
    89 r.93                        2             2               
    90 r.94                       -2         -1001               
    91 r.95                 -1.49103       -999.84               
    92 r.96                     1000             2               
    93 r.97                    -1000         -1001               
    94 r.98                  2995.98      -997.926               
    95 r.99                        2             2               
    96 r.100                      -2         -1001               
    97 r.101                -3.52291      -999.353               
    98 r.102                    1000             2               
    99 r.103                   -1000         -1001               
   100 r.104                    2994      -996.111               
   101 r.105                 -995.83      -998.509               
   102 r.106                 -991.81       -991.81               
   103 r.107                 -995.83      -998.509               
   104 r.108                 -991.81       -991.81               
   105 r.109                -998.699      -998.699               
   106 r.110                 1.30102      -997.005               
   107 r.111                 -2.7184      -998.699               
   108 r.112                 997.282      -997.005               
   109 r.113                    1001             2               
   110 r.114                   -1001         -1001               
   111 r.115                  2001.3      -997.841               
   112 r.116                    1001             2               
   113 r.117                   -1001         -1001               
   114 r.118                 2997.28      -996.719               
   115 r.119                    1001             2               
   116 r.120                   -1001         -1001               
   117 r.121                 3002.08       1.54281               
   118 r.122                    1001             2               
   119 r.123                   -1001         -1001               
   120 r.124                    2000       8.20737               
   121 r.125                    1001             2               
   122 r.126                   -1001         -1001               
   123 r.127                 3004.06       1.49103               
   124 r.128                    1001             2               
   125 r.129                   -1001         -1001               
   126 r.130                    1006       8.18969               
   127 r.131                    1001             2               
   128 r.132                   -1001         -1001               
   129 r.133                 3002.57       -999.84               
   130 r.134                    1001             2               
   131 r.135                   -1001         -1001               
   132 r.136                 2001.98      -997.926               
   133 r.137                    1001             2               
   134 r.138                   -1001         -1001               
   135 r.139                 3000.54      -999.353               
   136 r.140                    1001             2               
   137 r.141                   -1001         -1001               
   138 r.142                    2000      -996.111               
   139 r.143                 -999.89       -999.89               
   140 r.144                 -997.81      -998.332               
   141 r.145                 -999.89       -999.89               
   142 r.146                 -997.81      -998.332               
   143 r.147                 5.36129      -998.699               
   144 r.148                 1005.36      -997.005               
   145 r.149                -996.719      -998.699               
   146 r.150                 3.28112      -997.005               
   147 r.151                 1005.36      -997.841               
   148 r.152                 5.36129      -996.719               
   149 r.153                 3.28112      -997.841               
   150 r.154                -996.719      -996.719               
   151 r.155                       2             2               
   152 r.156                      -2         -1001               
   153 r.157                 999.511       1.54281               
   154 r.158                    1000             2               
   155 r.159                   -1000         -1001               
   156 r.160                 1998.02       8.20737               
   157 r.161                       2             2               
   158 r.162                      -2         -1001               
   159 r.163                 1.49103       1.49103               
   160 r.164                    1000             2               
   161 r.165                   -1000         -1001               
   162 r.166                 1004.02       8.18969               
   163 r.167                    1001             2               
   164 r.168                   -1001         -1001               
   165 r.169                 997.431          0.11               
   166 r.170                    1001             2               
   167 r.171                   -1001         -1001               
   168 r.172                 1998.02        1.6675               
   169 r.173                       2             2               
   170 r.174                      -2         -1001               
   171 r.175                -2.03188      -999.353               
   172 r.176                    1000             2               
   173 r.177                   -1000         -1001               
   174 r.178                 1998.02      -996.111               
   175 r.179                -997.321       -999.84               
   176 r.180                 4.17027      -997.926               
   177 r.181                -997.321       -999.84               
   178 r.182                 4.17027      -997.926               
   179 r.183                -997.208      -998.699               
   180 r.184                 2.79205      -997.005               
   181 r.185                -998.699      -998.699               
   182 r.186                 1.30102      -997.005               
   183 r.187                    1001             2               
   184 r.188                   -1001         -1001               
   185 r.189                 2002.79      -997.841               
   186 r.190                    1001             2               
   187 r.191                   -1001         -1001               
   188 r.192                  2001.3      -996.719               
   189 r.193                       2             2               
   190 r.194                      -2         -1001               
   191 r.195                 1.54281       1.54281               
   192 r.196                    1000             2               
   193 r.197                   -1000         -1001               
   194 r.198                    2000       8.20737               
   195 r.199                       2             2               
   196 r.200                      -2         -1001               
   197 r.201                 3.52291       1.49103               
   198 r.202                    1000             2               
   199 r.203                   -1000         -1001               
   200 r.204                    1006       8.18969               
   201 r.205                    1001             2               
   202 r.206                   -1001         -1001               
   203 r.207                 999.463          0.11               
   204 r.208                    1001             2               
   205 r.209                   -1001         -1001               
   206 r.210                    2000        1.6675               
   207 r.211                       2             2               
   208 r.212                      -2         -1001               
   209 r.213                 2.03188      0.159822               
   210 r.214                    1000             2               
   211 r.215                   -1000         -1001               
   212 r.216                 2001.98         2.074               
   213 r.217                -999.353      -999.353               
   214 r.218                 2.19017      -996.111               
   215 r.219                -999.353      -999.353               
   216 r.220                 2.19017      -996.111               
   217 r.221                       2             2               
   218 r.222                      -2         -1001               
   219 r.223                -995.176      -998.699               
   220 r.224                    1000             2               
   221 r.225                   -1000         -1001               
   222 r.226                 2003.28      -997.005               
   223 r.227                 4.82393      -997.841               
   224 r.228                -995.176      -996.719               
   225 r.229                 3.28112      -997.841               
   226 r.230                -996.719      -996.719               
   227 r.231                -994.529      -998.699               
   228 r.232                 5.47129      -997.005               
   229 r.233                -994.529      -998.699               
   230 r.234                 5.47129      -997.005               
   231 r.235                       2             2               
   232 r.236                      -2         -1001               
   233 r.237                 995.176      0.647356               
   234 r.238                    1000             2               
   235 r.239                   -1000         -1001               
   236 r.240                 1996.72       3.88892               
   237 r.241                    1001             2               
   238 r.242                   -1001         -1001               
   239 r.243                    2000      -997.841               
   240 r.244                    1001             2               
   241 r.245                   -1001         -1001               
   242 r.246                    2000      -996.719               
   243 r.247                    1001             2               
   244 r.248                   -1001         -1001               
   245 r.249                  1998.7       1.49103               
   246 r.250                    1001             2               
   247 r.251                   -1001         -1001               
   248 r.252                 1002.72       8.18969               
   249 r.253                    1001             2               
   250 r.254                   -1001         -1001               
   251 r.255                 1997.21      0.159822               
   252 r.256                    1001             2               
   253 r.257                   -1001         -1001               
   254 r.258                  1998.7         2.074               
   255 r.259                    1001             2               
   256 r.260                   -1001         -1001               
   257 r.261                    2000       1.30102               
   258 r.262                    1001             2               
   259 r.263                   -1001         -1001               
   260 r.264                    2000       2.99543               

   No. Column name       Activity     Lower bound   Upper bound
------ ------------    ------------- ------------- -------------
     1 tt                    5.52351             0               
     2 s_1_1        *              1             0             1 
     3 t_1_1                 3.28112             0               
     4 s_2_1        *              0             0             1 
     5 t_2_1                 3.28112             0               
     6 s_1_2        *              1             0             1 
     7 t_1_2                 1.30102             0               
     8 s_2_2        *              0             0             1 
     9 t_2_2                 997.282             0               
    10 s_1_3        *              0             0             1 
    11 t_1_3                 1005.36             0               
    12 s_2_3        *              1             0             1 
    13 t_2_3                 3.28112             0               
    14 s_1_4        *              1             0             1 
    15 t_1_4                 2.79205             0               
    16 s_2_4        *              0             0             1 
    17 t_2_4                 1.30102             0               
    18 s_1_5        *              1             0             1 
    19 t_1_5                 4.82393             0               
    20 s_2_5        *              0             0             1 
    21 t_2_5                 3.28112             0               
    22 s_1_6        *              1             0             1 
    23 t_1_6                 5.47129             0               
    24 s_2_6        *              0             0             1 
    25 t_2_6                 5.47129             0               
    26 s_1_7        *              1             0             1 
    27 t_1_7                       0             0               
    28 s_2_7        *              0             0             1 
    29 t_2_7                       0             0               
    30 s_1_8        *              0             0             1 
    31 t_1_8                       0             0               
    32 s_2_8        *              1             0             1 
    33 t_2_8                       0             0               
    34 r_1_1_2      *              0             0             1 
    35 u_1_1_2      *              1             0             1 
    36 r_2_1_2      *              1             0             1 
    37 u_2_1_2      *              0             0             1 
    38 r_1_1_3      *              1             0             1 
    39 u_1_1_3      *              0             0             1 
    40 r_2_1_3      *              1             0             1 
    41 u_2_1_3      *              0             0             1 
    42 r_1_1_4      *              0             0             1 
    43 u_1_1_4      *              1             0             1 
    44 r_2_1_4      *              1             0             1 
    45 u_2_1_4      *              0             0             1 
    46 r_1_1_5      *              0             0             1 
    47 u_1_1_5      *              0             0             1 
    48 r_2_1_5      *              1             0             1 
    49 u_2_1_5      *              0             0             1 
    50 r_1_2_3      *              1             0             1 
    51 u_1_2_3      *              0             0             1 
    52 r_2_2_3      *              1             0             1 
    53 u_2_2_3      *              0             0             1 
    54 r_1_2_4      *              0             0             1 
    55 u_1_2_4      *              0             0             1 
    56 r_2_2_4      *              1             0             1 
    57 u_2_2_4      *              0             0             1 
    58 r_1_2_5      *              0             0             1 
    59 u_1_2_5      *              0             0             1 
    60 r_2_2_5      *              1             0             1 
    61 u_2_2_5      *              0             0             1 
    62 r_1_2_8      *              1             0             1 
    63 u_1_2_8      *              0             0             1 
    64 r_2_2_8      *              1             0             1 
    65 u_2_2_8      *              0             0             1 
    66 r_1_3_4      *              1             0             1 
    67 u_1_3_4      *              0             0             1 
    68 r_2_3_4      *              1             0             1 
    69 u_2_3_4      *              0             0             1 
    70 r_1_3_5      *              1             0             1 
    71 u_1_3_5      *              0             0             1 
    72 r_2_3_5      *              1             0             1 
    73 u_2_3_5      *              0             0             1 
    74 r_1_4_5      *              0             0             1 
    75 u_1_4_5      *              0             0             1 
    76 r_2_4_5      *              1             0             1 
    77 u_2_4_5      *              0             0             1 
    78 r_1_4_8      *              1             0             1 
    79 u_1_4_8      *              0             0             1 
    80 r_2_4_8      *              1             0             1 
    81 u_2_4_8      *              0             0             1 
    82 r_1_5_7      *              0             0             1 
    83 u_1_5_7      *              1             0             1 
    84 r_2_5_7      *              1             0             1 
    85 u_2_5_7      *              0             0             1 
    86 r_1_7_8      *              1             0             1 
    87 u_1_7_8      *              0             0             1 
    88 r_2_7_8      *              1             0             1 
    89 u_2_7_8      *              0             0             1 

Integer feasibility conditions:

KKT.PE: max.abs.err = 4.55e-13 on row 82
        max.rel.err = 7.58e-17 on row 82
        High quality

KKT.PB: max.abs.err = 1.14e-13 on row 105
        max.rel.err = 1.14e-16 on row 105
        High quality

End of output
